c FILE /home/rafael/Documents/HappySet/MIHS/inputs/happygen/output/graph_scale_free_k4_p0.5_v50_20241127_082434.txt
c SOURCE This is a scale-free graph formed for the happy graph colouring problem.
c DESCRIPTION It was generated using the problem generator of Rhyd Lewis
c
c GRAPH STATS
c Seed                             = 1680932024
c Number of Nodes                  = 50
c Number of colours k              = 4
c Number of pre-assignments        = 25
c Number of links per new node     = 5
c Density                          = 0.191837
c 
c The degrees of nodes 1 to 50, respectively, are as follows 
c [31, 22, 20, 20, 18, 16, 15, 14, 14, 13, 13, 12, 12, 12, 11, 10, 10, 9, 9, 9, 8, 8, 8, 8, 8, 7, 
c  7, 7, 7, 7, 6, 6, 6, 6, 6, 5, 5, 5, 5, 5, 5, 5, 5, 5, 5, 5, 5, 5, 5, 5] 
c  
p edge 50 235 4
e 1 2
e 1 3
e 1 4
e 1 5
e 1 7
e 1 8
e 1 10
e 1 11
e 1 12
e 1 13
e 1 14
e 1 15
e 1 16
e 1 17
e 1 18
e 1 19
e 1 21
e 1 23
e 1 24
e 1 26
e 1 28
e 1 31
e 1 34
e 1 36
e 1 37
e 1 39
e 1 40
e 1 41
e 1 42
e 1 45
e 1 50
e 2 3
e 2 5
e 2 7
e 2 8
e 2 10
e 2 12
e 2 15
e 2 16
e 2 20
e 2 23
e 2 24
e 2 25
e 2 31
e 2 32
e 2 33
e 2 36
e 2 39
e 2 46
e 2 48
e 2 49
e 2 50
e 3 5
e 3 6
e 3 8
e 3 9
e 3 12
e 3 13
e 3 14
e 3 16
e 3 18
e 3 21
e 3 23
e 3 26
e 3 27
e 3 29
e 3 30
e 3 37
e 3 38
e 3 43
e 4 5
e 4 6
e 4 8
e 4 10
e 4 11
e 4 14
e 4 15
e 4 16
e 4 17
e 4 18
e 4 20
e 4 21
e 4 26
e 4 27
e 4 34
e 4 37
e 4 44
e 4 47
e 4 49
e 5 7
e 5 8
e 5 9
e 5 10
e 5 11
e 5 12
e 5 13
e 5 14
e 5 17
e 5 25
e 5 28
e 5 38
e 5 39
e 5 44
e 6 11
e 6 12
e 6 13
e 6 17
e 6 18
e 6 19
e 6 20
e 6 22
e 6 26
e 6 27
e 6 40
e 6 41
e 6 48
e 6 50
e 7 8
e 7 9
e 7 12
e 7 15
e 7 27
e 7 29
e 7 30
e 7 32
e 7 33
e 7 40
e 7 43
e 7 46
e 8 10
e 8 11
e 8 12
e 8 16
e 8 19
e 8 27
e 8 39
e 8 47
e 9 10
e 9 11
e 9 22
e 9 24
e 9 26
e 9 28
e 9 31
e 9 38
e 9 41
e 9 43
e 9 47
e 10 12
e 10 13
e 10 20
e 10 31
e 10 42
e 10 47
e 10 48
e 11 13
e 11 14
e 11 17
e 11 23
e 11 28
e 11 30
e 11 42
e 12 13
e 12 16
e 12 21
e 12 34
e 13 22
e 13 25
e 13 28
e 13 33
e 13 41
e 14 19
e 14 21
e 14 25
e 14 32
e 14 40
e 14 41
e 14 45
e 15 18
e 15 31
e 15 33
e 15 35
e 15 36
e 15 37
e 15 44
e 16 19
e 16 20
e 16 22
e 16 40
e 17 18
e 17 43
e 17 46
e 17 49
e 17 50
e 18 35
e 18 36
e 18 38
e 19 22
e 19 24
e 19 29
e 19 46
e 20 24
e 20 34
e 20 42
e 20 45
e 21 23
e 21 29
e 21 32
e 22 36
e 22 47
e 22 50
e 23 25
e 23 44
e 23 49
e 24 29
e 24 37
e 24 39
e 25 34
e 25 48
e 25 49
e 26 30
e 26 33
e 27 46
e 27 48
e 28 35
e 28 44
e 29 38
e 29 45
e 30 32
e 30 35
e 30 42
e 31 32
e 33 35
e 34 45
e 35 43
n 6 3
n 7 1
n 10 1
n 16 3
n 18 3
n 19 3
n 21 2
n 22 3
n 23 2
n 25 2
n 28 2
n 30 1
n 31 1
n 33 1
n 34 2
n 36 3
n 37 2
n 38 3
n 39 4
n 41 3
n 42 1
n 44 2
n 45 2
n 49 2
n 50 3
